\ Model (null)_copy_copy_copy_copy_copy_copy_copy_copy
\ LP format - for model browsing. Use MPS format to capture full model detail.
Minimize
  + + - + I + TORQ + VEL + CONST_MOTOR + VCC + VIN + 0 VMM + 0 GND + GND
   + ENABLE + PHASE + OUT1 + OUT2 + 0 SLEEP - DUTY_CYCYLE0 - DUTY_CYCYLE1
   + + + - + Vin + 0 GND + 0 GND + GND + 0 5V + 0 3.3V + 0 0 + 0 1 + 0 2
   + 0 3 + 0 4 + 5 + 6 + 0 7 + 0 8 + 0 9 + 0 10 + 0 11 + 0 12 + 0 13 + 0 A0
   + 0 A1 + 0 A2 + 0 A3 + 0 A4 + 0 A5 + 0 SDA + 0 SCL + 0 AREF + 0 RESET
   + 0 IOREF + 0 DUTY_CYCYLE0 + 0 DUTY_CYCYLE1 + 0 DUTY_CYCYLE2
   + 0 DUTY_CYCYLE3 + 0 DUTY_CYCYLE4 - DUTY_CYCYLE5 - DUTY_CYCYLE6
   + 0 DUTY_CYCYLE7 + 0 DUTY_CYCYLE8 + 0 DUTY_CYCYLE9 + 0 DUTY_CYCYLE10
   + 0 DUTY_CYCYLE11 + 0 DUTY_CYCYLE12 + 0 DUTY_CYCYLE13 + + + -
Subject To
 VOLTAGE_CONS: + - - - 6 CONST_MOTOR <= 0
 TORQUE_CONS: 0.3269 I - TORQ = 0
 VELOCITY_CONS: 1.589572405023049 + - 1.589572405023049 -
   - 6.358289620092195 I - VEL = 0
 OUTPUT_CONS0: - 0.9078941961678578 VIN + OUT1 - 4.8 DUTY_CYCYLE0
   + 4.357892141605717 CONST_HBRIDGE = 0
 VOLTAGE_CONS0: VCC - 1.8 CONST_HBRIDGE + Vin - 7 CONST_MICRO_CONTROLLER
   >= 0
 VOLTAGE_CONS4: GND >= 0
 VOLTAGE_CONS1: VIN >= 0
 INPUT_CONS0: ENABLE - 3.5 DUTY_CYCYLE0 >= 0
 OUTPUT_CONS1: - 0.5636363636363636 VIN + OUT2 - 4.8 DUTY_CYCYLE1
   + 2.705454545454545 CONST_HBRIDGE = 0
 INPUT_CONS1: PHASE - 3.5 DUTY_CYCYLE1 >= 0
 R10: - + + OUT1 = 0
 R11: - - + OUT2 = 0
 NEGATIVE_VOLTAGE_CONS: - = 0
 POSITIVE_VOLTAGE_CONS: + - 4.8 CONST_BATTERY = 0
 DIGITAL_CONS5: 5 - 5 DUTY_CYCYLE5 = 0
 VOLTAGE_CONS3: GND >= 0
 VOLTAGE_CONS0: Vin - 7 CONST_MICRO_CONTROLLER >= 0
 DIGITAL_CONS6: 6 - 5 DUTY_CYCYLE6 = 0
 R18: - ENABLE + 5 = 0
 R19: - - GND = 0
 R20: - - GND = 0
 R21: - - GND = 0
 R22: - GND + - = 0
 R23: - GND + - = 0
 R24: - DUTY_CYCYLE0 + DUTY_CYCYLE5 = 0
 R25: - PHASE + 6 = 0
 R26: - DUTY_CYCYLE1 + DUTY_CYCYLE6 = 0
 R27: - VCC + + = 0
 R28: - VIN + + = 0
 POSITIVE_VOLTAGE_CONS: + - 7.4 CONST_BATTERY = 0
 NEGATIVE_VOLTAGE_CONS: - = 0
 R31: - Vin + + = 0
 R32: - GND + - = 0
 R33: - GND + - = 0
 R34: - GND + - = 0
 R35: - GND + - = 0
 R36: - GND + - = 0
Bounds
 + <= 6
 - = 0
 I <= 1.5
 TORQ = 0.001
 VEL = 6
 CONST_MOTOR = 1
 1.8 <= VCC <= 7
 VIN <= 11
 VMM <= 11
 GND = 0
 GND = 0
 ENABLE <= 7
 PHASE <= 7
 OUT1 <= 11
 OUT2 <= 11
 SLEEP <= 5
 DUTY_CYCYLE0 <= 1
 DUTY_CYCYLE1 <= 1
 CONST_HBRIDGE = 1
 + = 4.8
 - = 0
 CONST_BATTERY = 1
 7 <= Vin <= 12
 GND = 0
 GND = 0
 GND = 0
 5V = 5
 3.3V = 3.3
 0 <= 5
 1 <= 5
 2 <= 5
 3 <= 5
 4 <= 5
 5 <= 5
 6 <= 5
 7 <= 5
 8 <= 5
 9 <= 5
 10 <= 5
 11 <= 5
 12 <= 5
 13 <= 5
 A0 <= 5
 A1 <= 5
 A2 <= 5
 A3 <= 5
 A4 <= 5
 A5 <= 5
 SDA <= 5
 SCL <= 5
 AREF <= 5
 RESET <= 5
 IOREF <= 5
 DUTY_CYCYLE0 <= 1
 DUTY_CYCYLE1 <= 1
 DUTY_CYCYLE2 <= 1
 DUTY_CYCYLE3 <= 1
 DUTY_CYCYLE4 <= 1
 DUTY_CYCYLE5 <= 1
 DUTY_CYCYLE6 <= 1
 DUTY_CYCYLE7 <= 1
 DUTY_CYCYLE8 <= 1
 DUTY_CYCYLE9 <= 1
 DUTY_CYCYLE10 <= 1
 DUTY_CYCYLE11 <= 1
 DUTY_CYCYLE12 <= 1
 DUTY_CYCYLE13 <= 1
 CONST_MICRO_CONTROLLER = 1
 + = 7.4
 - = 0
 CONST_BATTERY = 1
End
